CMD:
./solvers/bin/cadical --plain --no-reduce -t 1600 ./data/cnfs//pdtvisns3p02/pdtvisns3p02.5.cnf

c --- [ banner ] -------------------------------------------------------------
c 
c CaDiCaL SAT Solver
c Copyright (c) 2016-2024
c A. Biere, M. Fleury, N. Froleyks, K. Fazekas, F. Pollitt, T. Faller
c JKU Linz, University of Freiburg, TU Wien
c 
c Version 2.1.3 5296d3d2a9bf48c154ab2acb5e44625776d821bf
c g++ (Gentoo 12.3.1_p20230526 p2) 12.3.1 20230526 -Wall -Wextra -O3 -DNDEBUG
c Sat Aug 9 07:26:21 PDT 2025 Linux cedar2.int.cedar.computecanada.ca 5.14.0-362.24.2.el9_3.x86_64 x86_64
c 
c --- [ limit ] --------------------------------------------------------------
c 
c setting time limit to 1600 seconds real time (due to '-t 1600')
c 
c --- [ parsing input ] ------------------------------------------------------
c 
c reading DIMACS file from './data/cnfs//pdtvisns3p02/pdtvisns3p02.5.cnf'
c opening file to read './data/cnfs//pdtvisns3p02/pdtvisns3p02.5.cnf'
c found 'p cnf 24165 71865' header
c parsed 71865 clauses in 0.01 seconds process time
c 
c --- [ options ] ------------------------------------------------------------
c 
c   --compact=false                (different from default 'true')
c   --decompose=false              (different from default 'true')
c   --deduplicate=false            (different from default 'true')
c   --elim=false                   (different from default 'true')
c   --probe=false                  (different from default 'true')
c   --reduce=false                 (different from default 'true')
c   --subsume=false                (different from default 'true')
c   --ternary=false                (different from default 'true')
c   --transred=false               (different from default 'true')
c   --vivify=false                 (different from default 'true')
c 
c --- [ solving ] ------------------------------------------------------------
c 
c time measured in process time since initialization
c 
c  seconds  reductions  redundant  irredundant
c         MB    restarts       trail      variables
c          level   conflicts       glue        remaining
c 
c *  0.01 14  0 0   0    0    0  0% 0 63496 17587 73%
c {  0.02 15  0 0   0    0    0  0% 0 63496 17587 73%
c i  0.02 15 52 0   0    9    6 43% 1 63496 17278 72%
c i  0.02 15 46 0   0   24   19 48% 2 63496 17275 71%
c i  0.02 15 35 0   0   37   30 49% 2 63496 17263 71%
c i  0.02 15 29 0   0   46   38 50% 2 63496 17262 71%
c i  0.03 15 17 0  11  125  105 57% 2 63496 17098 71%
c i  0.04 15 15 0  12  189  157 58% 2 63496 17087 71%
c i  0.04 15 14 0  16  216  179 58% 2 63496 16955 70%
c i  0.04 15 13 0  16  219  181 58% 2 63496 16945 70%
c i  0.04 15 13 0  16  220  181 58% 2 63496 15363 64%
c i  0.04 15 13 0  16  226  185 58% 2 63496 14976 62%
c i  0.04 15 13 0  16  239  193 59% 2 63496 8009 33%
c }  0.04 15 12 0  16  242  194 59% 2 63496 7544 31%
c 0  0.04 15 12 0  16  242  194 59% 2 63496 7544 31%
c 
c --- [ result ] -------------------------------------------------------------
c 
s UNSATISFIABLE
c 
c --- [ run-time profiling ] -------------------------------------------------
c 
c process time taken by individual solving procedures
c (percentage relative to process time for solving)
c 
c         0.03   99.64% search
c         0.03   89.37% unstable
c         0.01   40.36% parse
c         0.00   10.23% lucky
c         0.00    0.00% simplify
c   =================================
c         0.03   70.68% solve
c 
c last line shows process time for solving
c (percentage relative to total process time)
c 
c --- [ statistics ] ---------------------------------------------------------
c 
c chronological:                92        38.02 %  of conflicts
c conflicts:                   242      7987.33    per second
c decisions:                   725     23928.97    per second
c fixed:                     16621        68.78 %  of all variables
c learned:                     226        93.39 %  per conflict
c learned_lits:               2465       100.00 %  learned literals
c minimized:                     0         0.00 %  learned literals
c shrunken:                    924        37.48 %  learned literals
c minishrunken:                214         8.68 %  learned literals
c otfs:                          3         1.24 %  of conflict
c propagations:             588372        19.42 M  per second
c restarts:                     16        15.12    interval
c subsumed:                     20         0.03 %  of all clauses
c strengthened:                  3         0.00 %  of all clauses
c 
c seconds are measured in process time for solving
c 
c --- [ resources ] ----------------------------------------------------------
c 
c total process time since initialization:         0.04    seconds
c total real time since initialization:            0.05    seconds
c maximum resident set size of process:           29.31    MB
c 
c --- [ shutting down ] ------------------------------------------------------
c 
c exit 20
